3 
4  54 
5  10 25 40 56 
6  06 11 16 21 26 31 36 41 46 51 56 
7  01 06 11 16 21 26 31 36 41 46 51 56 
8  01 06 11 16 21 26 31 36 41 46 51 56 
9  01 06 11 16 21 27 33 41 48 56 
10  03 11 18 26 33 41 48 56 
11  03 11 18 26 33 41 48 56 
12  03 11 18 26 33 41 48 56 
13  03 10 18 26 33 41 48 56 
14  03 10 18 26 33 41 46 51 55 
15  01 06 11 16 21 25 31 36 40 46 51 55 
16  01 06 10 16 21 25 31 36 40 46 51 55 
17  01 06 10 16 21 25 31 36 41 46 51 56 
18  01 06 11 16 21 26 31 37 43 49 56 
19  03 11 18 26 33 41 47 54 
20  02 10 17 28 43 50 58 
21  13 28 43 53 
22  08 23 39 54 
23 
0 
